(set-info :source |printed by MathSAT|)
(declare-fun |.x{10}| () (Array Int Int))
(declare-fun |.x{13}| () (Array Int Int))
(declare-fun |.x{11}| () Int)
(declare-fun |.x{14}| () Int)
(declare-fun |.x{12}| () Int)
(declare-fun |.x{15}| () Int)
(declare-fun |.y{2}| () Int)
(declare-fun |.y{3}| () Int)
(declare-fun |.loc{3}| () Bool)
(declare-fun |.loc{5}| () Bool)
(declare-fun |.loc{4}| () Bool)
(declare-fun |.loc{6}| () Bool)
(declare-fun |.x{41}| () Int)
(define-fun .def_18 () Bool (! |.loc{4}| :next |.loc{6}|))
(define-fun .def_38 () Bool (not .def_18))
(define-fun .def_16 () Bool (! |.loc{3}| :next |.loc{5}|))
(define-fun .def_93 () Bool (and .def_16 .def_38))
(define-fun .def_10 () Int (! |.x{11}| :next |.x{14}|))
(define-fun .def_92 () Bool (= .def_10 0))
(define-fun .def_94 () Bool (! (and .def_92 .def_93) :init true))
(define-fun .def_80 () Bool (= |.x{14}| 0))
(define-fun .def_12 () Int (! |.x{12}| :next |.x{15}|))
(define-fun .def_49 () Bool (<= .def_12 .def_10))
(define-fun .def_78 () Bool (and .def_16 .def_49))
(define-fun .def_81 () Bool (and .def_78 .def_80))
(define-fun .def_65 () Bool (= .def_12 |.x{15}|))
(define-fun .def_82 () Bool (and .def_65 .def_81))
(define-fun .def_83 () Bool (and .def_65 .def_82))
(define-fun .def_14 () Int (! |.y{2}| :next |.y{3}|))
(define-fun .def_74 () Bool (= |.x{15}| .def_14))
(define-fun .def_44 () Bool (not .def_16))
(define-fun .def_75 () Bool (and .def_44 .def_74))
(define-fun .def_70 () Int (* (- 1) |.x{14}|))
(define-fun .def_71 () Int (+ .def_10 .def_70))
(define-fun .def_72 () Bool (= .def_71 (- 1)))
(define-fun .def_76 () Bool (and .def_72 .def_75))
(define-fun .def_20 () Bool (<= .def_14 .def_12))
(define-fun .def_77 () Bool (and .def_20 .def_76))
(define-fun .def_84 () Bool (or .def_77 .def_83))
(define-fun .def_8 () (Array Int Int) (! |.x{10}| :next |.x{13}|))
(define-fun .def_57 () Bool (= .def_8 |.x{13}|))
(define-fun .def_85 () Bool (and .def_57 .def_84))
(define-fun .def_86 () Bool (and |.loc{6}| .def_85))
(define-fun .def_42 () Bool (not |.loc{5}|))
(define-fun .def_87 () Bool (and .def_42 .def_86))
(define-fun .def_67 () (Array Int Int) (store .def_8 .def_10 .def_10))
(define-fun .def_68 () Bool (= |.x{13}| .def_67))
(define-fun .def_50 () Bool (not .def_49))
(define-fun .def_62 () Bool (and .def_16 .def_50))
(define-fun .def_63 () Bool (and |.loc{5}| .def_62))
(define-fun .def_40 () Bool (not |.loc{6}|))
(define-fun .def_64 () Bool (and .def_40 .def_63))
(define-fun .def_66 () Bool (and .def_64 .def_65))
(define-fun .def_69 () Bool (and .def_66 .def_68))
(define-fun .def_73 () Bool (and .def_69 .def_72))
(define-fun .def_88 () Bool (or .def_73 .def_87))
(define-fun .def_89 () Bool (and .def_38 .def_88))
(define-fun .def_34 () Int (* (- 1) |.x{15}|))
(define-fun .def_54 () Int (+ .def_10 .def_34))
(define-fun .def_55 () Bool (= .def_54 (- 1)))
(define-fun .def_48 () Bool (= .def_12 |.y{3}|))
(define-fun .def_51 () Bool (and .def_48 .def_50))
(define-fun .def_31 () Bool (= .def_10 |.x{14}|))
(define-fun .def_52 () Bool (and .def_31 .def_51))
(define-fun .def_53 () Bool (and .def_18 .def_52))
(define-fun .def_56 () Bool (and .def_53 .def_55))
(define-fun .def_58 () Bool (and .def_56 .def_57))
(define-fun .def_59 () Bool (and .def_40 .def_58))
(define-fun .def_60 () Bool (and .def_42 .def_59))
(define-fun .def_61 () Bool (and .def_44 .def_60))
(define-fun .def_90 () Bool (or .def_61 .def_89))
(define-fun .def_46 () Bool (= .def_14 |.y{3}|))
(define-fun .def_35 () Int (+ .def_12 .def_34))
(define-fun .def_36 () Bool (= .def_35 (- 1)))
(define-fun .def_22 () Int (select .def_8 .def_10))
(define-fun .def_23 () Int (select .def_8 .def_12))
(define-fun .def_24 () (Array Int Int) (store .def_8 .def_10 .def_23))
(define-fun .def_25 () (Array Int Int) (store .def_24 .def_12 .def_22))
(define-fun .def_26 () Bool (<= .def_22 .def_23))
(define-fun .def_27 () Bool (not .def_26))
(define-fun .def_28 () (Array Int Int) (ite .def_27 .def_25 .def_8))
(define-fun .def_29 () Bool (= |.x{13}| .def_28))
(define-fun .def_21 () Bool (not .def_20))
(define-fun .def_30 () Bool (and .def_21 .def_29))
(define-fun .def_32 () Bool (and .def_30 .def_31))
(define-fun .def_37 () Bool (and .def_32 .def_36))
(define-fun .def_39 () Bool (and .def_37 .def_38))
(define-fun .def_41 () Bool (and .def_39 .def_40))
(define-fun .def_43 () Bool (and .def_41 .def_42))
(define-fun .def_45 () Bool (and .def_43 .def_44))
(define-fun .def_47 () Bool (and .def_45 .def_46))
(define-fun .def_91 () Bool (! (or .def_47 .def_90) :trans true))
(define-fun .def_95 () Int (! |.x{41}| :next |.xpv{1}|))
(define-fun .def_106 () Bool (and .def_18 .def_44))
(define-fun .def_101 () Bool (<= .def_95 0))
(define-fun .def_102 () Bool (not .def_101))
(define-fun .def_103 () Bool (and .def_49 .def_102))
(define-fun .def_99 () Bool (<= .def_12 .def_95))
(define-fun .def_100 () Bool (not .def_99))
(define-fun .def_104 () Bool (and .def_100 .def_103))
(define-fun .def_96 () Int (select .def_8 .def_95))
(define-fun .def_97 () Bool (= .def_95 .def_96))
(define-fun .def_98 () Bool (not .def_97))
(define-fun .def_105 () Bool (and .def_98 .def_104))
(define-fun .def_107 () Bool (and .def_105 .def_106))
(define-fun .def_109 () Bool (! (not .def_107) :invar-property 0))
(assert true)
